
# Masses
mass 3 15.99943
mass 4 12.01078
mass 5 15.99943
mass 6 12.01078
mass 7 18.998403
mass 8 1.007947

# Pair Coeffs
pair_coeff 3 3 0.2102061 3.0398122
pair_coeff 4 4 0.086879315 3.4806469
pair_coeff 5 5 0.20947353 2.99716
pair_coeff 6 6 0.10884061 3.3795318
pair_coeff 7 7 0.061 3.1181455
pair_coeff 8 8 1.2326e-05 0.53453923

# Bond Coeffs
bond_coeff 2 582.698766451 1.225198386222
bond_coeff 3 385.7604595587 1.369745182308
bond_coeff 4 329.44145381095 1.523435958334
bond_coeff 5 543.5267831885 0.9716763312559
bond_coeff 6 340.45121009905 1.358690858053
bond_coeff 7 264.62148576755 1.52190126495

# Angle Coeffs
angle_coeff 2 201.41175231035 127.4691416191
angle_coeff 3 57.8982893754 126.8062420451
angle_coeff 4 65.09061609600001 110.3538806181
angle_coeff 5 53.20531626545 116.5475862634

# Dihedral Coeffs
dihedral_coeff 1 1 2.772607909663 2 180
dihedral_coeff 2 1 0.09692684957115 1 0
dihedral_coeff 3 1 -0.3703352413219 2 0
dihedral_coeff 4 1 0.1155372516788 3 0
dihedral_coeff 5 1 0.02664938770063 3 0
dihedral_coeff 6 1 2.687457892086 2 180
dihedral_coeff 7 1 0.09223874044423 3 0
dihedral_coeff 8 1 0.3159935921949 2 180
dihedral_coeff 9 1 0.3247796806857 1 180
dihedral_coeff 10 1 0.0216461108787 3 0
dihedral_coeff 11 1 -0.1754149451998 1 180

# Improper Coeffs
improper_coeff 1 3.5 -1 2
